\* Problem: steiner *\

Minimize
 obj: + 3.60555124282837 x1i5 + 3.60555124282837 x1i6
 + 2.2360680103302 x2i5 + 7.28010988235474 x2i6 + 6.08276271820068 x3i5
 + 9.21954441070557 x3i6 + 5 x4i5 + 5 x4i6 + 6 x5i6

Subject To
 p1: 0 x1i5 = 1
 p2: 0 x1i5 = 1
 p3: 0 x1i5 = 1
 p4: 0 x1i5 = 1
 q5: 0 x1i5 = 3
 q6: 0 x1i5 = 3

Bounds
 0 <= x1i5 <= 1
 0 <= x1i6 <= 1
 0 <= x2i5 <= 1
 0 <= x2i6 <= 1
 0 <= x3i5 <= 1
 0 <= x3i6 <= 1
 0 <= x4i5 <= 1
 0 <= x4i6 <= 1
 0 <= x5i6 <= 1

Generals
 x1i5
 x1i6
 x2i5
 x2i6
 x3i5
 x3i6
 x4i5
 x4i6
 x5i6

End
